peakDumbCharging = 25900; 
Machine = anon_enum(16); 
machineSpeed = [3700,3700,3700,3700,3700,3700,3700,3700,3700,3700,3700,3700,3700,3700,3700,3700]; 
machineLoad = [3700,3700,3700,3700,3700,3700,3700,3700,3700,3700,3700,3700,3700,3700,3700,3700]; 
Car = anon_enum(34); 
demandCar = [11440,6000,4560,8360,2680,6600,15160,7800,9320,17080,2160,15880,3760,9000,2320,8480,2800,6720,29280,12920,2400,28280,14280,8880,7680,7640,4400,6080,9520,13160,19400,2320,33280,32440]; 
arrivalCar = [69,69,69,69,66,64,62,61,60,59,59,56,56,54,54,52,52,50,48,47,46,46,46,41,41,38,37,37,37,36,35,34,31,21]; 
departureCar = [74,73,72,72,71,67,69,67,64,65,61,70,59,58,55,56,54,53,64,53,49,58,51,46,44,42,40,40,41,42,44,36,48,40]; 
